33D32945 STP File, STP Format Version 1.0

SECTION Comment 
Name "hc6u" 
Creator ""  
Remark "prize version of Rosseti et al. hypercube graphs"  
END 

SECTION Graph
Nodes 64
Edges 192
E 1 33 1.000000
E 1 17 1.000000
E 1 9 1.000000
E 1 5 1.000000
E 1 3 1.000000
E 1 2 1.000000
E 2 34 1.000000
E 2 18 1.000000
E 2 10 1.000000
E 2 6 1.000000
E 2 4 1.000000
E 3 35 1.000000
E 3 19 1.000000
E 3 11 1.000000
E 3 7 1.000000
E 3 4 1.000000
E 4 36 1.000000
E 4 20 1.000000
E 4 12 1.000000
E 4 8 1.000000
E 5 37 1.000000
E 5 21 1.000000
E 5 13 1.000000
E 5 7 1.000000
E 5 6 1.000000
E 6 38 1.000000
E 6 22 1.000000
E 6 14 1.000000
E 6 8 1.000000
E 7 39 1.000000
E 7 23 1.000000
E 7 15 1.000000
E 7 8 1.000000
E 8 40 1.000000
E 8 24 1.000000
E 8 16 1.000000
E 9 41 1.000000
E 9 25 1.000000
E 9 13 1.000000
E 9 11 1.000000
E 9 10 1.000000
E 10 42 1.000000
E 10 26 1.000000
E 10 14 1.000000
E 10 12 1.000000
E 11 43 1.000000
E 11 27 1.000000
E 11 15 1.000000
E 11 12 1.000000
E 12 44 1.000000
E 12 28 1.000000
E 12 16 1.000000
E 13 45 1.000000
E 13 29 1.000000
E 13 15 1.000000
E 13 14 1.000000
E 14 46 1.000000
E 14 30 1.000000
E 14 16 1.000000
E 15 47 1.000000
E 15 31 1.000000
E 15 16 1.000000
E 16 48 1.000000
E 16 32 1.000000
E 17 49 1.000000
E 17 25 1.000000
E 17 21 1.000000
E 17 19 1.000000
E 17 18 1.000000
E 18 50 1.000000
E 18 26 1.000000
E 18 22 1.000000
E 18 20 1.000000
E 19 51 1.000000
E 19 27 1.000000
E 19 23 1.000000
E 19 20 1.000000
E 20 52 1.000000
E 20 28 1.000000
E 20 24 1.000000
E 21 53 1.000000
E 21 29 1.000000
E 21 23 1.000000
E 21 22 1.000000
E 22 54 1.000000
E 22 30 1.000000
E 22 24 1.000000
E 23 55 1.000000
E 23 31 1.000000
E 23 24 1.000000
E 24 56 1.000000
E 24 32 1.000000
E 25 57 1.000000
E 25 29 1.000000
E 25 27 1.000000
E 25 26 1.000000
E 26 58 1.000000
E 26 30 1.000000
E 26 28 1.000000
E 27 59 1.000000
E 27 31 1.000000
E 27 28 1.000000
E 28 60 1.000000
E 28 32 1.000000
E 29 61 1.000000
E 29 31 1.000000
E 29 30 1.000000
E 30 62 1.000000
E 30 32 1.000000
E 31 63 1.000000
E 31 32 1.000000
E 32 64 1.000000
E 33 49 1.000000
E 33 41 1.000000
E 33 37 1.000000
E 33 35 1.000000
E 33 34 1.000000
E 34 50 1.000000
E 34 42 1.000000
E 34 38 1.000000
E 34 36 1.000000
E 35 51 1.000000
E 35 43 1.000000
E 35 39 1.000000
E 35 36 1.000000
E 36 52 1.000000
E 36 44 1.000000
E 36 40 1.000000
E 37 53 1.000000
E 37 45 1.000000
E 37 39 1.000000
E 37 38 1.000000
E 38 54 1.000000
E 38 46 1.000000
E 38 40 1.000000
E 39 55 1.000000
E 39 47 1.000000
E 39 40 1.000000
E 40 56 1.000000
E 40 48 1.000000
E 41 57 1.000000
E 41 45 1.000000
E 41 43 1.000000
E 41 42 1.000000
E 42 58 1.000000
E 42 46 1.000000
E 42 44 1.000000
E 43 59 1.000000
E 43 47 1.000000
E 43 44 1.000000
E 44 60 1.000000
E 44 48 1.000000
E 45 61 1.000000
E 45 47 1.000000
E 45 46 1.000000
E 46 62 1.000000
E 46 48 1.000000
E 47 63 1.000000
E 47 48 1.000000
E 48 64 1.000000
E 49 57 1.000000
E 49 53 1.000000
E 49 51 1.000000
E 49 50 1.000000
E 50 58 1.000000
E 50 54 1.000000
E 50 52 1.000000
E 51 59 1.000000
E 51 55 1.000000
E 51 52 1.000000
E 52 60 1.000000
E 52 56 1.000000
E 53 61 1.000000
E 53 55 1.000000
E 53 54 1.000000
E 54 62 1.000000
E 54 56 1.000000
E 55 63 1.000000
E 55 56 1.000000
E 56 64 1.000000
E 57 61 1.000000
E 57 59 1.000000
E 57 58 1.000000
E 58 62 1.000000
E 58 60 1.000000
E 59 63 1.000000
E 59 60 1.000000
E 60 64 1.000000
E 61 63 1.000000
E 61 62 1.000000
E 62 64 1.000000
E 63 64 1.000000
END

SECTION Terminals
Terminals 64
TP 1 1
TP 2 0
TP 3 0
TP 4 1
TP 5 0
TP 6 1
TP 7 2
TP 8 0
TP 9 0
TP 10 2
TP 11 1
TP 12 0
TP 13 2
TP 14 0
TP 15 0
TP 16 2
TP 17 0
TP 18 1
TP 19 1
TP 20 0
TP 21 2
TP 22 0
TP 23 0
TP 24 1
TP 25 2
TP 26 0
TP 27 0
TP 28 1
TP 29 0
TP 30 1
TP 31 1
TP 32 0
TP 33 0
TP 34 2
TP 35 2
TP 36 0
TP 37 1
TP 38 0
TP 39 0
TP 40 1
TP 41 2
TP 42 0
TP 43 0
TP 44 2
TP 45 0
TP 46 1
TP 47 1
TP 48 0
TP 49 1
TP 50 0
TP 51 0
TP 52 2
TP 53 0
TP 54 1
TP 55 1
TP 56 0
TP 57 0
TP 58 2
TP 59 2
TP 60 0
TP 61 1
TP 62 0
TP 63 0
TP 64 2
END

EOF
